
m = 12;

n = 12;

Amin = 57;

Amax = 72;

B = 2736;

lambda = 20.00;

c = 
[[10,4,8,2,10,4,7,9,10,5,2,4],
[10,10,6,2,9,7,5,7,6,9,6,4],
[10,4,2,5,10,6,10,9,7,5,9,6],
[7,5,5,4,7,3,6,4,2,8,2,9],
[4,5,3,7,3,8,7,9,8,8,10,7],
[3,9,6,8,3,2,2,6,6,5,8,9],
[6,10,2,4,8,2,10,10,5,2,4,4],
[6,10,9,3,7,6,7,6,5,2,2,4],
[2,2,9,4,3,6,2,5,4,2,7,10],
[9,4,7,10,3,8,3,7,7,8,7,10],
[4,3,5,5,3,3,5,10,3,3,2,2],
[6,2,5,8,10,9,5,6,2,8,6,3]];
